c File: data_files/evolved_graphs/g3699.col
c
c Auto generated graph
c
p edge 100 1043
e 1 2
e 1 3
e 1 5
e 1 9
e 1 19
e 1 23
e 1 36
e 1 37
e 1 39
e 1 40
e 1 49
e 1 52
e 1 56
e 1 60
e 1 62
e 1 66
e 1 75
e 1 88
e 1 89
e 1 99
e 2 4
e 2 5
e 2 11
e 2 15
e 2 16
e 2 24
e 2 26
e 2 34
e 2 36
e 2 43
e 2 44
e 2 53
e 2 54
e 2 56
e 2 58
e 2 60
e 2 65
e 2 74
e 2 75
e 2 76
e 2 77
e 2 84
e 2 86
e 2 90
e 3 4
e 3 8
e 3 14
e 3 15
e 3 17
e 3 19
e 3 25
e 3 39
e 3 42
e 3 46
e 3 49
e 3 51
e 3 60
e 3 61
e 3 63
e 3 66
e 3 76
e 3 78
e 3 82
e 3 84
e 3 89
e 3 97
e 4 7
e 4 8
e 4 9
e 4 12
e 4 16
e 4 18
e 4 25
e 4 26
e 4 28
e 4 31
e 4 38
e 4 41
e 4 45
e 4 50
e 4 54
e 4 56
e 4 58
e 4 61
e 4 65
e 4 67
e 4 69
e 4 71
e 4 72
e 4 79
e 5 10
e 5 13
e 5 17
e 5 25
e 5 28
e 5 30
e 5 31
e 5 35
e 5 38
e 5 40
e 5 49
e 5 51
e 5 52
e 5 55
e 5 58
e 5 65
e 5 67
e 5 71
e 5 72
e 5 78
e 6 9
e 6 13
e 6 14
e 6 18
e 6 24
e 6 25
e 6 27
e 6 30
e 6 33
e 6 36
e 6 43
e 6 44
e 6 46
e 6 49
e 6 50
e 6 51
e 6 54
e 6 62
e 6 63
e 6 65
e 6 68
e 6 71
e 6 81
e 6 94
e 7 10
e 7 11
e 7 15
e 7 16
e 7 17
e 7 24
e 7 35
e 7 41
e 7 43
e 7 46
e 7 50
e 7 52
e 7 53
e 7 62
e 7 65
e 7 72
e 8 10
e 8 14
e 8 16
e 8 18
e 8 20
e 8 27
e 8 32
e 8 33
e 8 39
e 8 40
e 8 43
e 8 45
e 8 49
e 8 52
e 8 55
e 8 57
e 8 58
e 8 59
e 8 64
e 8 74
e 8 75
e 8 88
e 9 15
e 9 23
e 9 24
e 9 25
e 9 26
e 9 27
e 9 33
e 9 36
e 9 46
e 9 48
e 9 49
e 9 52
e 9 55
e 9 64
e 9 72
e 9 76
e 9 90
e 9 93
e 10 16
e 10 23
e 10 28
e 10 33
e 10 34
e 10 39
e 10 41
e 10 43
e 10 48
e 10 69
e 10 70
e 10 76
e 10 80
e 10 91
e 10 97
e 11 22
e 11 26
e 11 31
e 11 32
e 11 35
e 11 41
e 11 45
e 11 48
e 11 51
e 11 59
e 11 62
e 11 66
e 11 75
e 11 85
e 11 88
e 11 90
e 11 93
e 11 94
e 12 13
e 12 14
e 12 18
e 12 24
e 12 31
e 12 38
e 12 44
e 12 45
e 12 46
e 12 54
e 12 58
e 12 60
e 12 61
e 12 63
e 12 65
e 12 67
e 12 69
e 13 14
e 13 16
e 13 19
e 13 22
e 13 23
e 13 24
e 13 29
e 13 36
e 13 46
e 13 51
e 13 54
e 13 55
e 13 57
e 13 59
e 13 60
e 13 61
e 13 64
e 13 65
e 13 69
e 13 72
e 13 74
e 13 75
e 13 76
e 13 78
e 13 83
e 14 15
e 14 18
e 14 19
e 14 21
e 14 22
e 14 25
e 14 26
e 14 27
e 14 28
e 14 31
e 14 32
e 14 35
e 14 45
e 14 47
e 14 52
e 14 54
e 14 55
e 14 71
e 14 72
e 14 86
e 15 17
e 15 19
e 15 20
e 15 25
e 15 38
e 15 40
e 15 45
e 15 52
e 15 56
e 15 57
e 15 59
e 15 61
e 15 68
e 15 83
e 15 85
e 15 90
e 16 19
e 16 25
e 16 34
e 16 38
e 16 42
e 16 44
e 16 46
e 16 48
e 16 52
e 16 54
e 16 55
e 16 64
e 16 68
e 16 71
e 16 72
e 16 73
e 16 100
e 17 21
e 17 24
e 17 27
e 17 32
e 17 38
e 17 41
e 17 42
e 17 63
e 17 68
e 17 72
e 17 75
e 17 80
e 17 82
e 17 98
e 17 99
e 18 21
e 18 24
e 18 26
e 18 29
e 18 40
e 18 43
e 18 45
e 18 48
e 18 49
e 18 54
e 18 63
e 18 67
e 18 70
e 18 72
e 18 73
e 18 74
e 18 82
e 18 87
e 18 88
e 18 89
e 19 31
e 19 32
e 19 36
e 19 39
e 19 41
e 19 42
e 19 45
e 19 46
e 19 48
e 19 49
e 19 50
e 19 51
e 19 53
e 19 54
e 19 58
e 19 68
e 19 69
e 19 71
e 19 73
e 19 76
e 19 77
e 20 21
e 20 22
e 20 25
e 20 29
e 20 31
e 20 40
e 20 42
e 20 44
e 20 48
e 20 49
e 20 52
e 20 55
e 20 57
e 20 59
e 20 60
e 20 67
e 20 69
e 20 72
e 20 83
e 20 91
e 21 31
e 21 32
e 21 34
e 21 35
e 21 38
e 21 41
e 21 42
e 21 49
e 21 51
e 21 55
e 21 56
e 21 67
e 21 70
e 21 77
e 21 85
e 21 95
e 22 23
e 22 25
e 22 27
e 22 30
e 22 35
e 22 36
e 22 39
e 22 40
e 22 41
e 22 50
e 22 57
e 22 58
e 22 59
e 22 62
e 22 63
e 22 69
e 22 73
e 22 74
e 22 81
e 22 85
e 22 90
e 22 95
e 23 27
e 23 28
e 23 31
e 23 32
e 23 39
e 23 40
e 23 41
e 23 42
e 23 48
e 23 52
e 23 53
e 23 58
e 23 61
e 23 68
e 23 71
e 23 74
e 23 75
e 23 78
e 23 93
e 23 95
e 24 34
e 24 36
e 24 39
e 24 42
e 24 43
e 24 44
e 24 45
e 24 46
e 24 52
e 24 54
e 24 56
e 24 63
e 24 65
e 24 66
e 24 69
e 24 70
e 24 71
e 24 75
e 24 76
e 24 85
e 25 38
e 25 42
e 25 47
e 25 49
e 25 51
e 25 52
e 25 53
e 25 54
e 25 66
e 25 68
e 25 74
e 25 77
e 25 78
e 25 82
e 25 95
e 26 27
e 26 34
e 26 46
e 26 47
e 26 48
e 26 52
e 26 54
e 26 65
e 26 71
e 26 76
e 26 79
e 26 86
e 27 29
e 27 32
e 27 33
e 27 35
e 27 39
e 27 44
e 27 46
e 27 52
e 27 53
e 27 57
e 27 62
e 27 66
e 27 72
e 27 74
e 27 75
e 27 76
e 27 77
e 27 79
e 27 93
e 28 30
e 28 37
e 28 38
e 28 52
e 28 55
e 28 57
e 28 60
e 28 62
e 28 63
e 28 65
e 28 71
e 28 74
e 28 78
e 28 82
e 28 85
e 28 89
e 28 93
e 29 34
e 29 36
e 29 41
e 29 46
e 29 52
e 29 58
e 29 62
e 29 64
e 29 66
e 29 68
e 29 74
e 29 78
e 29 84
e 29 93
e 30 31
e 30 39
e 30 41
e 30 44
e 30 53
e 30 65
e 30 68
e 30 69
e 30 73
e 30 77
e 30 80
e 30 86
e 30 92
e 31 33
e 31 35
e 31 43
e 31 44
e 31 49
e 31 56
e 31 59
e 31 60
e 31 63
e 31 66
e 31 72
e 31 75
e 31 95
e 31 98
e 32 33
e 32 34
e 32 37
e 32 40
e 32 41
e 32 42
e 32 43
e 32 46
e 32 51
e 32 61
e 32 62
e 32 68
e 32 73
e 32 76
e 32 85
e 32 97
e 33 34
e 33 37
e 33 38
e 33 39
e 33 41
e 33 42
e 33 43
e 33 46
e 33 48
e 33 55
e 33 56
e 33 60
e 33 64
e 33 68
e 33 70
e 33 71
e 33 72
e 33 86
e 33 95
e 33 97
e 34 35
e 34 37
e 34 38
e 34 40
e 34 46
e 34 47
e 34 49
e 34 50
e 34 54
e 34 59
e 34 60
e 34 75
e 34 92
e 34 100
e 35 40
e 35 53
e 35 55
e 35 56
e 35 63
e 35 64
e 35 66
e 35 68
e 35 73
e 35 83
e 35 87
e 35 97
e 36 45
e 36 47
e 36 50
e 36 52
e 36 57
e 36 60
e 36 64
e 36 66
e 36 69
e 36 70
e 36 71
e 36 72
e 36 73
e 36 75
e 36 77
e 37 39
e 37 40
e 37 43
e 37 44
e 37 46
e 37 50
e 37 52
e 37 53
e 37 60
e 37 61
e 37 65
e 37 66
e 37 73
e 37 74
e 37 76
e 37 92
e 38 46
e 38 53
e 38 57
e 38 59
e 38 61
e 38 65
e 38 67
e 38 69
e 38 76
e 38 85
e 38 88
e 38 90
e 38 93
e 38 99
e 39 40
e 39 41
e 39 43
e 39 54
e 39 59
e 39 62
e 39 64
e 39 65
e 39 69
e 39 73
e 39 77
e 39 90
e 39 92
e 39 95
e 40 41
e 40 42
e 40 43
e 40 45
e 40 50
e 40 56
e 40 60
e 40 65
e 40 69
e 40 71
e 40 73
e 40 77
e 40 97
e 40 98
e 41 50
e 41 52
e 41 56
e 41 57
e 41 58
e 41 60
e 41 69
e 41 76
e 41 85
e 41 88
e 41 96
e 42 51
e 42 52
e 42 59
e 42 72
e 42 73
e 42 74
e 42 75
e 42 76
e 42 83
e 42 88
e 42 89
e 43 45
e 43 47
e 43 52
e 43 53
e 43 55
e 43 59
e 43 60
e 43 63
e 43 68
e 43 69
e 43 72
e 43 76
e 43 80
e 43 94
e 44 45
e 44 54
e 44 59
e 44 68
e 44 71
e 44 76
e 44 77
e 44 78
e 44 88
e 44 91
e 44 95
e 44 98
e 44 99
e 45 56
e 45 57
e 45 61
e 45 62
e 45 68
e 45 77
e 45 86
e 46 50
e 46 51
e 46 61
e 46 68
e 46 69
e 46 71
e 46 77
e 46 81
e 46 86
e 46 92
e 47 48
e 47 54
e 47 60
e 47 76
e 47 81
e 48 49
e 48 50
e 48 53
e 48 65
e 48 67
e 48 74
e 48 81
e 48 97
e 49 53
e 49 56
e 49 57
e 49 60
e 49 63
e 49 67
e 49 68
e 49 69
e 49 74
e 49 82
e 49 98
e 50 63
e 50 68
e 50 71
e 50 75
e 50 77
e 50 81
e 50 88
e 50 96
e 50 99
e 51 52
e 51 62
e 51 68
e 51 69
e 51 70
e 51 71
e 51 72
e 51 78
e 51 85
e 52 53
e 52 54
e 52 56
e 52 65
e 52 67
e 52 71
e 52 72
e 52 76
e 52 77
e 52 80
e 52 88
e 53 60
e 53 62
e 53 75
e 53 87
e 53 94
e 54 57
e 54 61
e 54 63
e 54 65
e 54 66
e 54 70
e 54 71
e 54 90
e 55 57
e 55 58
e 55 67
e 55 71
e 55 74
e 55 75
e 55 82
e 55 92
e 56 59
e 56 60
e 56 64
e 56 75
e 56 90
e 56 96
e 57 58
e 57 62
e 57 63
e 57 67
e 57 68
e 57 71
e 57 73
e 57 84
e 57 95
e 57 97
e 57 100
e 58 61
e 58 70
e 58 71
e 58 74
e 58 76
e 58 83
e 59 60
e 59 64
e 59 65
e 59 67
e 59 69
e 59 73
e 59 75
e 59 77
e 59 98
e 60 61
e 60 64
e 60 65
e 60 69
e 60 75
e 60 77
e 60 81
e 60 83
e 60 85
e 60 97
e 60 99
e 61 68
e 61 73
e 61 74
e 61 75
e 61 76
e 61 80
e 61 91
e 61 96
e 62 63
e 62 68
e 62 71
e 62 74
e 62 76
e 62 77
e 62 84
e 62 86
e 62 94
e 63 66
e 63 71
e 63 78
e 63 91
e 63 94
e 64 67
e 64 72
e 64 73
e 64 74
e 64 75
e 64 76
e 64 77
e 64 93
e 65 77
e 65 80
e 65 88
e 66 67
e 66 69
e 66 71
e 66 72
e 66 91
e 66 99
e 67 68
e 67 72
e 67 76
e 67 77
e 67 92
e 67 95
e 68 70
e 68 74
e 68 78
e 68 92
e 68 95
e 68 97
e 69 92
e 70 72
e 70 73
e 70 79
e 70 85
e 70 91
e 70 97
e 71 75
e 71 94
e 71 95
e 71 97
e 71 99
e 72 73
e 72 75
e 72 76
e 72 77
e 72 81
e 72 85
e 73 74
e 73 77
e 73 82
e 73 94
e 73 96
e 73 98
e 74 76
e 74 81
e 74 97
e 75 78
e 75 95
e 76 77
e 76 93
e 78 81
e 78 84
e 78 92
e 78 93
e 78 99
e 79 80
e 79 93
e 79 97
e 80 85
e 80 87
e 81 86
e 81 88
e 81 90
e 81 93
e 81 95
e 81 96
e 82 83
e 82 84
e 82 85
e 82 87
e 82 88
e 82 91
e 82 92
e 82 98
e 83 88
e 83 93
e 83 98
e 83 99
e 84 88
e 84 89
e 84 91
e 84 94
e 84 99
e 85 87
e 85 88
e 85 89
e 85 90
e 85 98
e 85 100
e 86 87
e 86 90
e 86 93
e 86 96
e 86 97
e 87 89
e 87 91
e 87 95
e 88 92
e 88 93
e 88 96
e 89 97
e 89 98
e 90 94
e 90 96
e 90 98
e 91 94
e 91 97
e 92 95
e 92 96
e 92 100
e 93 99
e 93 100
e 94 97
e 95 96
e 95 97
e 98 99
e 98 100
